c turning on binary mode checking
c parsing input formula with 2610401 variables and 9433555 clauses
c finished parsing, read 686782615 bytes from proof file
c detected empty clause; start verification via backward checking
c 1005 of 9433555 clauses in core                            
c 1300 of 19783210 lemmas in core using 2901 resolution steps
c 0 RAT lemmas in core; 28 redundant literals in core lemmas
s VERIFIED
c verification time: 76.330 seconds
